p edge 50 75
colours 3
e 4 25
e 9 47
e 2 15
e 8 36
e 20 42
e 9 36
e 26 41
e 18 23
e 13 45
e 4 14
e 34 46
e 22 27
e 19 24
e 35 39
e 14 46
e 9 43
e 15 34
e 3 33
e 24 48
e 24 42
e 39 45
e 10 45
e 7 21
e 34 51
e 2 33
e 32 51
e 40 44
e 17 38
e 22 26
e 2 11
e 20 21
e 39 49
e 22 50
e 10 27
e 29 41
e 28 40
e 1 24
e 2 36
e 11 48
e 12 25
e 18 49
e 4 32
e 5 16
e 25 43
e 4 39
e 1 2
e 31 48
e 9 35
e 27 46
e 27 29
e 12 48
e 5 42
e 14 24
e 39 42
e 15 30
e 14 19
e 21 22
e 39 47
e 7 22
e 32 46
e 31 37
e 8 27
e 2 23
e 12 22
e 15 32
e 16 35
e 18 38
e 18 25
e 5 20
e 1 19
e 18 36
e 5 44
e 23 36
e 9 49
e 3 48
